c Reduced graph for GEOM110_2 generated by Cyril Grelier
p edge 107 619
e 1 2
e 1 4
e 1 5
e 1 8
e 1 9
e 1 20
e 1 22
e 1 25
e 1 26
e 1 28
e 1 29
e 1 30
e 1 32
e 1 40
e 1 48
e 1 49
e 1 51
e 1 57
e 1 59
e 2 4
e 2 5
e 2 8
e 2 9
e 2 20
e 2 22
e 2 25
e 2 26
e 2 28
e 2 29
e 2 30
e 2 41
e 2 48
e 2 49
e 2 51
e 2 57
e 2 59
e 3 4
e 3 5
e 3 6
e 3 7
e 3 11
e 3 14
e 3 22
e 3 23
e 3 28
e 3 35
e 3 36
e 3 39
e 3 60
e 3 64
e 3 66
e 3 70
e 3 73
e 4 5
e 4 8
e 4 9
e 4 11
e 4 20
e 4 22
e 4 23
e 4 28
e 4 29
e 4 35
e 4 36
e 4 60
e 4 64
e 4 66
e 5 8
e 5 9
e 5 20
e 5 22
e 5 23
e 5 29
e 5 36
e 5 41
e 5 55
e 5 64
e 5 77
e 5 83
e 5 102
e 6 7
e 6 10
e 6 11
e 6 12
e 6 14
e 6 16
e 6 23
e 6 24
e 6 35
e 6 36
e 6 39
e 6 64
e 6 66
e 6 70
e 6 73
e 7 10
e 7 11
e 7 12
e 7 13
e 7 14
e 7 16
e 7 23
e 7 24
e 7 35
e 7 36
e 7 39
e 7 58
e 7 66
e 7 70
e 8 9
e 8 20
e 8 22
e 8 25
e 8 28
e 8 29
e 8 30
e 8 41
e 8 51
e 8 55
e 8 77
e 8 90
e 9 20
e 9 22
e 9 25
e 9 28
e 9 29
e 9 30
e 9 41
e 9 55
e 9 77
e 9 90
e 10 12
e 10 13
e 10 14
e 10 15
e 10 16
e 10 18
e 10 19
e 10 24
e 10 27
e 10 35
e 10 39
e 10 47
e 10 58
e 11 14
e 11 16
e 11 23
e 11 24
e 11 35
e 11 36
e 11 39
e 11 64
e 11 66
e 11 70
e 11 73
e 12 13
e 12 14
e 12 15
e 12 16
e 12 18
e 12 19
e 12 24
e 12 27
e 12 39
e 12 47
e 12 58
e 12 103
e 13 14
e 13 15
e 13 16
e 13 18
e 13 19
e 13 21
e 13 24
e 13 38
e 13 44
e 13 47
e 13 56
e 13 103
e 14 21
e 14 23
e 14 24
e 14 36
e 14 64
e 14 73
e 14 103
e 14 106
e 15 18
e 15 19
e 15 21
e 15 24
e 15 38
e 15 44
e 15 56
e 15 78
e 15 81
e 15 88
e 15 100
e 15 103
e 16 19
e 16 24
e 16 27
e 16 35
e 16 39
e 16 47
e 16 58
e 16 66
e 16 70
e 17 43
e 17 53
e 17 62
e 17 63
e 17 69
e 17 71
e 17 74
e 17 76
e 17 80
e 17 82
e 17 84
e 17 86
e 17 87
e 17 89
e 17 95
e 18 19
e 18 27
e 18 38
e 18 47
e 18 50
e 18 58
e 18 75
e 18 85
e 18 88
e 18 100
e 18 107
e 19 27
e 19 38
e 19 47
e 19 50
e 19 58
e 19 75
e 19 88
e 19 100
e 19 107
e 20 22
e 20 29
e 20 30
e 20 41
e 20 55
e 20 77
e 20 83
e 20 90
e 21 24
e 21 44
e 21 56
e 21 78
e 21 79
e 21 81
e 21 91
e 21 92
e 21 93
e 21 103
e 21 106
e 22 23
e 22 25
e 22 28
e 22 29
e 22 41
e 22 55
e 23 35
e 23 36
e 23 64
e 23 73
e 23 83
e 23 102
e 24 36
e 24 39
e 24 103
e 24 106
e 25 26
e 25 30
e 25 32
e 25 48
e 25 49
e 25 51
e 25 57
e 25 59
e 25 67
e 26 28
e 26 32
e 26 40
e 26 48
e 26 49
e 26 51
e 26 57
e 26 59
e 26 60
e 26 61
e 26 67
e 27 38
e 27 47
e 27 50
e 27 58
e 27 72
e 27 75
e 27 85
e 27 88
e 27 104
e 28 32
e 28 35
e 28 40
e 28 60
e 28 66
e 28 70
e 29 30
e 29 41
e 29 55
e 29 77
e 29 90
e 30 41
e 30 48
e 30 51
e 30 59
e 30 77
e 30 90
e 31 33
e 31 34
e 31 37
e 31 42
e 31 45
e 31 46
e 31 52
e 31 54
e 31 65
e 31 68
e 31 97
e 31 101
e 31 105
e 32 40
e 32 48
e 32 49
e 32 51
e 32 57
e 32 59
e 32 60
e 32 61
e 32 67
e 33 34
e 33 37
e 33 43
e 33 45
e 33 46
e 33 54
e 33 62
e 33 65
e 33 68
e 33 71
e 33 72
e 33 86
e 34 37
e 34 42
e 34 45
e 34 46
e 34 50
e 34 52
e 34 54
e 34 65
e 34 68
e 34 72
e 34 75
e 35 39
e 35 60
e 35 66
e 35 70
e 36 64
e 36 73
e 36 83
e 36 102
e 37 42
e 37 45
e 37 46
e 37 52
e 37 54
e 37 65
e 37 68
e 37 97
e 37 101
e 37 105
e 38 44
e 38 47
e 38 56
e 38 75
e 38 85
e 38 88
e 38 100
e 38 107
e 39 58
e 39 60
e 39 66
e 39 70
e 40 48
e 40 49
e 40 57
e 40 60
e 40 61
e 40 67
e 40 70
e 40 89
e 40 95
e 41 55
e 41 77
e 41 83
e 41 90
e 42 45
e 42 46
e 42 52
e 42 54
e 42 65
e 42 68
e 42 97
e 42 101
e 42 105
e 43 53
e 43 62
e 43 69
e 43 71
e 43 72
e 43 82
e 43 86
e 43 87
e 43 89
e 43 95
e 44 56
e 44 78
e 44 79
e 44 81
e 44 91
e 44 92
e 44 93
e 44 100
e 45 46
e 45 50
e 45 52
e 45 54
e 45 65
e 45 68
e 45 72
e 46 52
e 46 54
e 46 65
e 46 68
e 46 71
e 46 86
e 47 50
e 47 58
e 47 72
e 47 75
e 48 49
e 48 51
e 48 57
e 48 59
e 48 67
e 49 51
e 49 57
e 49 59
e 49 61
e 49 67
e 50 58
e 50 65
e 50 72
e 50 75
e 50 85
e 50 104
e 51 57
e 51 59
e 51 67
e 52 54
e 52 68
e 52 97
e 52 101
e 52 104
e 52 105
e 53 62
e 53 63
e 53 69
e 53 71
e 53 74
e 53 76
e 53 82
e 53 84
e 53 86
e 53 87
e 54 65
e 54 68
e 54 71
e 54 86
e 55 77
e 55 83
e 55 90
e 55 102
e 56 78
e 56 79
e 56 81
e 56 91
e 56 92
e 56 93
e 57 59
e 57 67
e 58 72
e 59 67
e 60 66
e 60 70
e 60 89
e 61 67
e 61 69
e 61 87
e 61 89
e 61 94
e 61 95
e 61 96
e 62 69
e 62 71
e 62 72
e 62 86
e 62 87
e 62 89
e 62 95
e 63 74
e 63 76
e 63 80
e 63 82
e 63 84
e 63 94
e 63 96
e 63 98
e 63 99
e 64 73
e 64 83
e 64 102
e 65 68
e 65 72
e 66 70
e 67 94
e 68 97
e 69 71
e 69 76
e 69 82
e 69 87
e 69 89
e 69 95
e 71 82
e 71 86
e 73 83
e 73 102
e 73 106
e 74 76
e 74 80
e 74 82
e 74 84
e 74 96
e 74 98
e 74 99
e 75 85
e 75 88
e 75 104
e 76 80
e 76 82
e 76 84
e 76 98
e 76 99
e 77 90
e 78 79
e 78 81
e 78 91
e 78 92
e 78 93
e 79 81
e 79 91
e 79 92
e 79 93
e 79 106
e 80 84
e 80 94
e 80 96
e 80 98
e 80 99
e 81 91
e 81 92
e 81 93
e 82 86
e 83 102
e 84 96
e 84 98
e 84 99
e 85 88
e 85 100
e 85 104
e 85 107
e 87 89
e 87 94
e 87 95
e 88 100
e 88 107
e 89 95
e 91 92
e 91 93
e 92 93
e 94 96
e 94 98
e 94 99
e 96 98
e 96 99
e 97 101
e 97 104
e 97 105
e 98 99
e 100 107
e 101 104
e 101 105
e 103 106
